
se = 80; % nombre de sessions
gr = 40; % nombre de grups de treball
cl = 12; % nombre de slots
minPapersPerSlot = 3; % minim nombre d'articles per sessio i slot
maxSesionsPar = 20; % maxim nombre de sessions paraleles

npMax = [6, 5, 5, 5, 4, 3, 3, 6, 5, 3, 5, 3]; % nombre maxim de papers per slot

np = [14, 5, 19, 17, 12, 10, 5, 18, 3, 11, 9, 9, 3, 3, 3, 4, 16, 3, 5, 6, 14, 3, 13, 5, 10, 6, 3, 16, 3, 9, 17, 8, 11, 11, 3, 13, 14, 7, 10, 13, 7, 7, 3, 17, 12, 11, 10, 5, 3, 3, 18, 15, 8, 3, 9, 10, 12, 9, 16, 12, 5, 16, 16, 4, 19, 13, 3, 3, 6, 3, 10, 7, 13, 18, 7, 10, 11, 5, 10, 9]; % nombre de papers acceptats a cada sessio

WG = [ {}, {1}, {2}, {3}, {4}, {5}, {}, {6}, {7}, {8,9}, {10,11,12}, {13,14}, {}, {}, {15}, {16,17,18}, {19}, {20}, {21}, {22,23,24}, {25,26,27}, {28}, {}, {}, {29,30,31}, {32,33}, {}, {}, {34,35}, {}, {}, {36,37}, {38,39,40}, {1,2}, {}, {3}, {4}, {5}, {6,7}, {8}, {9}, {10}, {11,12,13}, {}, {}, {}, {}, {14}, {15}, {16}, {}, {17,18,19}, {20}, {21,22}, {}, {23}, {}, {}, {}, {}, {}, {24}, {}, {}, {25}, {}, {}, {}, {26}, {27}, {28}, {29,30}, {}, {31}, {}, {}, {32}, {}, {33}, {34} ]; % grups per sessio

